results_rootrelaxation/bin012_070_012.srr.sol
solution status: optimal solution found
objective value:                                  7.6
_var671_                            0.200000000000001 	(obj:1)
_var696_                                          0.4 	(obj:0)
_var717_                            0.199999999999999 	(obj:1)
_var724_                            0.200000000000001 	(obj:1)
_var751_                                          0.4 	(obj:2)
_var766_                            0.200000000000001 	(obj:1)
_var770_                            0.200000000000001 	(obj:1)
_var771_                            0.200000000000001 	(obj:0)
_var780_                                          0.4 	(obj:1)
_var789_                            0.600000000000001 	(obj:1)
_var799_                                          0.4 	(obj:1)
_var817_                            0.200000000000001 	(obj:1)
_var819_                                          0.2 	(obj:1)
_var823_                                          0.2 	(obj:0)
_var829_                            0.399999999999999 	(obj:1)
_var831_                            0.399999999999999 	(obj:0)
_var840_                                          0.4 	(obj:0)
_var845_                                          0.2 	(obj:1)
_var848_                            0.199999999999999 	(obj:0)
_var849_                            0.199999999999999 	(obj:1)
_var857_                                          0.2 	(obj:0)
_var870_                            0.199999999999999 	(obj:0)
_var871_                                          0.2 	(obj:0)
_var874_                                          0.6 	(obj:1)
_var875_                            0.200000000000001 	(obj:0)
_var878_                                          0.2 	(obj:1)
_var890_                                          0.4 	(obj:0)
_var891_                            0.600000000000001 	(obj:1)
_var895_                                          0.2 	(obj:1)
_var896_                                          0.2 	(obj:1)
_var898_                            0.199999999999999 	(obj:1)
_var901_                            0.400000000000001 	(obj:0)
_var902_                            0.400000000000001 	(obj:0)
_var904_                            0.200000000000001 	(obj:1)
_var906_                            0.200000000000001 	(obj:0)
_var907_                            0.199999999999999 	(obj:1)
_var909_                                          0.2 	(obj:1)
_var916_                            0.200000000000001 	(obj:1)
_var920_                            0.200000000000001 	(obj:2)
